c preprocessed version of celar01-wpp, 47 vertices, 275 edges
p td 47 275
0 1
0 15
0 26
0 16
0 19
0 20
0 27
0 25
0 28
0 31
0 32
0 33
0 29
0 38
0 45
0 39
0 18
0 17
0 46
1 2
1 4
1 15
1 26
1 19
1 27
1 41
1 25
1 14
1 31
1 32
1 33
1 45
1 43
1 42
1 44
1 24
3 2
5 2
2 4
2 15
2 40
2 9
2 41
2 14
2 13
2 43
2 42
2 44
2 10
2 7
2 12
3 4
3 5
8 3
34 3
5 4
4 15
4 40
4 10
4 7
4 41
4 14
4 12
4 43
4 42
4 44
5 6
8 5
34 5
7 6
6 11
6 43
6 44
6 42
8 7
7 11
7 42
7 34
7 44
8 9
34 8
10 9
9 41
9 11
9 12
9 13
9 43
9 44
9 34
10 11
10 34
10 12
10 13
10 41
10 43
10 44
11 12
11 13
11 42
44 11
12 13
12 43
14 13
13 43
15 14
40 14
41 14
14 34
14 42
14 43
14 44
15 16
15 41
15 24
15 29
15 38
15 43
15 39
15 42
15 44
15 30
16 17
16 24
16 29
16 38
16 39
18 17
22 17
23 17
17 24
17 39
17 25
17 28
17 31
17 38
17 43
17 42
17 36
17 37
18 19
18 20
18 28
18 24
18 29
18 46
18 21
18 27
18 35
19 20
19 27
19 25
19 28
19 32
19 33
19 29
19 45
19 39
19 46
19 30
19 31
21 20
22 20
20 27
20 28
20 29
20 35
20 46
20 30
20 38
21 22
21 23
21 27
21 30
21 24
21 36
21 28
21 29
22 23
22 28
22 29
22 39
22 36
22 27
22 30
22 38
23 24
23 36
43 23
25 24
28 24
24 31
24 38
24 43
24 42
24 36
24 37
24 39
26 25
25 31
25 32
25 33
25 45
25 39
25 28
25 35
25 46
26 27
26 32
26 33
26 29
26 45
26 46
26 28
26 35
27 28
27 31
27 32
27 33
27 38
27 45
27 35
27 30
27 29
27 39
27 46
28 29
28 39
28 37
28 46
28 31
28 33
28 30
28 38
32 28
30 29
29 38
29 39
29 46
30 31
30 33
30 38
30 36
30 37
30 39
32 30
31 32
31 33
31 45
31 37
31 35
32 33
32 45
32 37
32 38
33 34
33 45
33 35
40 33
34 35
40 34
36 35
35 37
38 35
40 35
36 37
38 37
38 39
40 41
40 43
40 42
40 44
41 42
43 42
42 44
45 46
